(set-logic ALL)
(set-option :produce-models true)
(declare-sort BoundSet 0)
(declare-sort UnboundSet 0)
(set-option :finite-model-find true)
(declare-fun IsAbout (BoundSet BoundSet) Bool)
(declare-fun IsBunk (BoundSet) Bool)
(declare-fun IsUnderstoodBy (BoundSet BoundSet) Bool)
(assert (not (=> (exists ((b BoundSet)) (exists ((a BoundSet)) (and (IsAbout a b) (IsBunk a)))) (exists ((d BoundSet)) (exists ((c BoundSet)) (not (IsUnderstoodBy c d)))))))
(check-sat)
(get-model)